57
3	4	5	6	10	11	12	13	15	17	20	21	22	26	28	30	39	42	45	46	49	50	52	54	55	56	57	0
3	5	6	7	11	12	13	23	24	26	29	30	33	35	36	39	40	42	43	47	49	50	51	55	56	0
1	2	5	6	9	10	11	12	13	17	24	28	29	31	33	36	37	38	40	41	42	44	45	48	49	52	53	56	57	0
1	9	10	13	14	20	22	27	28	29	32	33	34	35	37	39	43	44	45	49	51	53	54	0
1	2	3	7	12	13	14	15	18	19	20	26	31	34	36	38	40	41	42	50	51	52	53	56	0
1	2	3	7	9	11	13	15	16	18	19	21	23	27	29	31	32	34	35	36	37	38	39	40	43	44	45	50	51	52	57	0
2	5	6	8	9	10	12	16	17	19	25	26	27	31	32	34	39	41	43	48	49	53	56	0
7	11	14	15	16	25	26	27	28	29	30	31	33	37	41	42	43	44	45	46	52	53	54	56	57	0
3	4	6	7	11	14	15	16	17	24	25	26	31	32	33	35	36	38	39	40	41	45	46	48	49	51	53	56	57	0
1	3	4	7	13	14	15	16	17	19	23	26	30	33	35	36	46	48	50	53	54	55	56	57	0
1	2	3	6	8	9	12	13	16	20	25	28	29	31	33	38	39	47	51	53	54	0
1	2	3	5	7	11	13	18	19	21	24	25	28	35	36	39	40	41	43	44	46	51	53	54	55	0
1	2	3	4	5	6	10	11	12	15	16	17	19	21	22	23	24	27	28	37	42	43	49	50	54	55	57	0
4	5	8	9	10	16	21	22	27	28	29	31	33	35	37	38	41	43	44	46	49	55	56	0
1	5	6	8	9	10	13	18	19	20	21	23	24	29	33	35	36	40	42	43	46	50	52	57	0
6	7	8	9	10	11	13	14	19	21	23	25	28	32	33	34	35	36	39	43	45	48	52	53	57	0
1	3	7	9	10	13	20	21	22	23	27	28	30	31	36	37	38	40	42	44	48	49	52	54	56	57	0
5	6	12	15	19	20	22	24	31	35	36	38	39	40	41	46	47	50	52	53	54	55	57	0
5	6	7	10	12	13	15	16	18	20	23	26	30	31	33	34	36	37	38	41	43	44	45	53	55	56	57	0
1	4	5	11	15	17	18	19	21	24	28	29	33	34	35	36	39	40	46	48	49	53	54	55	57	0
1	6	12	13	14	15	16	17	20	22	26	28	29	30	31	34	37	39	40	41	44	45	46	47	49	52	53	56	0
1	4	13	14	17	18	21	23	37	39	40	42	43	45	48	50	55	56	0
2	6	10	13	15	16	17	19	22	24	25	26	27	28	32	33	34	35	36	37	38	42	44	45	46	49	50	56	0
2	3	9	12	13	15	18	20	23	27	28	32	33	34	35	39	42	44	45	46	48	54	0
7	8	9	11	12	16	23	27	28	30	35	36	40	41	42	43	44	45	46	47	49	50	52	55	57	0
1	2	5	7	8	9	10	19	21	23	28	30	31	32	33	36	37	43	44	45	46	52	53	56	0
4	6	7	8	13	14	17	23	24	25	30	32	38	44	45	46	47	49	51	52	53	54	56	0
1	3	4	8	11	12	13	14	16	17	20	21	23	24	25	26	32	34	38	41	43	46	47	49	52	53	56	0
2	3	4	6	8	11	14	15	20	21	32	35	39	42	47	49	51	52	55	56	0
1	2	8	10	17	19	21	25	26	27	32	36	39	40	42	44	47	49	52	55	56	57	0
3	5	6	7	8	9	11	14	17	18	19	21	26	32	35	37	40	42	43	45	46	48	50	51	57	0
4	6	7	9	16	23	24	26	27	28	29	30	31	34	37	38	40	41	42	43	44	45	47	48	50	51	54	55	0
2	3	4	8	9	10	11	14	15	16	19	20	23	24	26	37	38	39	41	42	43	51	52	54	55	56	57	0
4	5	6	7	16	19	20	21	23	24	28	32	36	37	38	43	47	49	50	51	52	53	55	56	57	0
2	4	6	9	10	12	14	15	16	18	20	23	24	25	29	31	36	41	46	49	50	51	53	55	0
2	3	5	6	9	10	12	15	16	17	18	19	20	23	25	26	30	34	35	38	39	40	42	46	51	52	54	55	57	0
3	4	6	8	13	14	17	19	21	22	23	26	31	32	33	34	38	39	43	45	46	47	49	51	53	55	56	0
3	5	6	9	11	14	17	18	19	23	27	28	32	33	34	36	37	39	40	41	45	47	48	49	50	52	54	55	56	0
1	2	4	6	7	9	11	12	16	18	20	21	22	24	29	30	33	36	37	38	40	41	44	47	51	56	0
2	3	5	6	9	12	15	17	18	20	21	22	25	30	31	32	36	38	39	43	46	47	51	53	57	0
3	5	7	8	9	12	14	18	19	21	25	28	32	33	35	38	39	43	45	49	50	53	55	56	0
1	2	3	5	8	13	15	17	22	23	24	25	29	30	31	32	33	36	44	46	49	50	51	53	55	56	0
2	4	6	7	8	12	13	14	15	16	19	22	25	26	28	31	32	33	34	37	40	41	46	47	51	0
3	4	6	8	12	14	17	19	21	23	24	25	26	27	30	32	39	42	47	50	53	57	0
1	3	4	6	8	9	16	19	21	22	23	24	25	26	27	31	32	37	38	41	46	47	48	50	53	56	57	0
1	8	9	10	12	14	15	18	20	21	23	24	25	26	27	28	31	35	36	37	40	42	43	45	47	48	49	52	53	54	55	56	0
2	11	18	21	25	27	28	29	30	32	34	37	38	39	40	43	44	45	46	48	51	52	54	57	0
3	7	9	10	16	17	20	22	24	31	32	38	45	46	47	51	52	54	0
1	2	3	4	7	9	13	14	17	20	21	23	25	27	28	29	30	34	35	37	38	41	42	46	50	55	57	0
1	2	5	6	10	13	15	18	22	23	25	31	32	34	35	38	41	42	44	45	49	51	54	0
2	4	5	6	9	11	12	27	29	31	32	33	34	35	36	37	39	40	42	43	47	48	50	52	55	57	0
1	3	5	6	8	15	16	17	18	21	25	26	27	28	29	30	33	34	36	38	46	47	48	51	55	57	0
3	4	5	7	8	9	10	11	12	16	18	19	20	21	26	27	28	34	35	37	40	41	42	44	45	46	54	55	0
1	4	8	10	11	12	13	17	18	20	24	27	32	33	36	38	46	47	48	50	53	55	0
1	2	10	12	13	14	18	19	20	22	25	29	30	32	33	34	35	36	37	38	41	42	46	49	51	52	53	54	57	0
1	2	3	5	7	8	9	10	14	17	19	21	22	23	26	27	28	29	30	33	34	37	38	39	41	42	45	46	0
1	3	6	8	9	10	13	15	16	17	18	19	20	25	30	31	33	34	36	40	44	45	47	49	51	52	55	0


comments:
random graph
nodes 57
edges 721
